************************************************************************
file with basedata            : j60_18.bas
initial value random generator: 1531
************************************************************************
projects                      :  1
jobs (incl. supersource/sink ):  62
horizon                       :  324
RESOURCES
  - renewable                 :  4   R
  - nonrenewable              :  0   N
  - doubly constrained        :  0   D
************************************************************************
PROJECT INFORMATION:
pronr.  #jobs rel.date duedate tardcost  MPM-Time
    1     60      0       65       49       65
************************************************************************
PRECEDENCE RELATIONS:
jobnr.    #modes  #successors   successors
   1        1          3           2   3   4
   2        1          2           5  15
   3        1          3           7  10  57
   4        1          1           6
   5        1          1          35
   6        1          3           8   9  41
   7        1          3          11  18  29
   8        1          3          13  23  25
   9        1          3          12  17  30
  10        1          3          20  22  24
  11        1          3          14  21  46
  12        1          3          16  32  51
  13        1          3          43  58  61
  14        1          3          31  42  44
  15        1          1          57
  16        1          3          19  28  34
  17        1          1          35
  18        1          1          34
  19        1          2          36  60
  20        1          1          40
  21        1          1          27
  22        1          1          49
  23        1          2          26  37
  24        1          2          26  52
  25        1          1          60
  26        1          1          53
  27        1          1          34
  28        1          1          36
  29        1          1          52
  30        1          2          33  47
  31        1          1          40
  32        1          1          54
  33        1          1          39
  34        1          1          38
  35        1          2          45  51
  36        1          1          56
  37        1          1          46
  38        1          1          48
  39        1          1          53
  40        1          1          60
  41        1          1          55
  42        1          1          50
  43        1          1          54
  44        1          2          48  52
  45        1          1          55
  46        1          1          56
  47        1          1          48
  48        1          1          49
  49        1          1          61
  50        1          1          56
  51        1          2          57  58
  52        1          1          53
  53        1          1          54
  54        1          1          55
  55        1          1          59
  56        1          1          59
  57        1          1          61
  58        1          1          59
  59        1          1          62
  60        1          1          62
  61        1          1          62
  62        1          0        
************************************************************************
REQUESTS/DURATIONS:
jobnr. mode duration  R 1  R 2  R 3  R 4
------------------------------------------------------------------------
  1      1     0       0    0    0    0
  2      1     4       1    0    0    0
  3      1     1       0    0    0    7
  4      1     3       0    7    0    0
  5      1    10       4    0    0    0
  6      1    10       0    0    8    0
  7      1     8       0    0    0   10
  8      1     4       6    0    0    0
  9      1     5       0    0    0    8
 10      1     5       0    0    0    2
 11      1     8       0    9    0    0
 12      1     2       0    0    8    0
 13      1     6       0    0    0    4
 14      1    10       0    0    0    7
 15      1     7       7    0    0    0
 16      1     6       0    0    3    0
 17      1     1      10    0    0    0
 18      1     4       0    9    0    0
 19      1     3       9    0    0    0
 20      1     4       8    0    0    0
 21      1     3       0    3    0    0
 22      1     5       0    0    6    0
 23      1     2       3    0    0    0
 24      1     5       0    1    0    0
 25      1     9       0    0    0    5
 26      1    10       7    0    0    0
 27      1     4       0    5    0    0
 28      1     8       0    0    0    8
 29      1     5       0    4    0    0
 30      1     5       0    0    3    0
 31      1     3       0    8    0    0
 32      1    10       1    0    0    0
 33      1    10       0    0    6    0
 34      1     2       0    0    3    0
 35      1     1       2    0    0    0
 36      1     1       0    0    5    0
 37      1     7       0    0    0    9
 38      1     2       0    0    5    0
 39      1    10       0    6    0    0
 40      1     1       0    0    2    0
 41      1     9       0    0    0    6
 42      1     7       0    0    0    8
 43      1     5       0    0   10    0
 44      1    10       0    0    0    3
 45      1     9       0    7    0    0
 46      1     2       0    0    0   10
 47      1     4      10    0    0    0
 48      1    10       0    3    0    0
 49      1     4       0    2    0    0
 50      1     1       0    7    0    0
 51      1     3       0    0    1    0
 52      1     7       0    4    0    0
 53      1     2       0    5    0    0
 54      1     7       0    4    0    0
 55      1     8       0    0    2    0
 56      1     2       7    0    0    0
 57      1     8       0    6    0    0
 58      1     7       5    0    0    0
 59      1     4       0    4    0    0
 60      1     3       9    0    0    0
 61      1     8       0    0    2    0
 62      1     0       0    0    0    0
************************************************************************
RESOURCEAVAILABILITIES:
  R 1  R 2  R 3  R 4
   21   16   15   21
************************************************************************
